(set-logic QF_UF)
(declare-fun A0 () Bool)
(declare-fun A1 () Bool)
(declare-fun A3 () Bool)
(declare-fun A4 () Bool)
(declare-fun A5 () Bool)
(declare-fun A6 () Bool)
(declare-fun A7 () Bool)
(declare-fun A8 () Bool)
(declare-fun A9 () Bool)
(declare-fun A10 () Bool)
(declare-fun A11 () Bool)
(declare-fun A12 () Bool)
(declare-fun A13 () Bool)
(declare-fun A14 () Bool)
(declare-fun A15 () Bool)
(declare-fun A16 () Bool)
(declare-fun A17 () Bool)
(declare-fun A18 () Bool)
(declare-fun A19 () Bool)
(declare-fun A20 () Bool)
(declare-fun A21 () Bool)
(declare-fun A22 () Bool)
(declare-fun A23 () Bool)
(declare-fun A24 () Bool)
(assert (let ((.def_0 (not A10))) (let ((.def_1 (or .def_0 A10))) (let ((.def_2 (not A18))) (let ((.def_3 (and A22 .def_2))) (let ((.def_4 (or .def_3 .def_1))) (let ((.def_5 (not A8))) (let ((.def_6 (not A6))) (let ((.def_7 (or .def_6 .def_5))) (let ((.def_8 (not A4))) (let ((.def_9 (and A0 .def_8))) (let ((.def_10 (not .def_9))) (let ((.def_11 (or .def_10 .def_7))) (let ((.def_12 (and .def_11 .def_4))) (let ((.def_13 (not .def_12))) (let ((.def_14 (not A17))) (let ((.def_15 (not A11))) (let ((.def_16 (or .def_15 .def_14))) (let ((.def_17 (not A3))) (let ((.def_18 (= .def_17 A1))) (let ((.def_19 (and .def_18 .def_16))) (let ((.def_20 (not A7))) (let ((.def_21 (not A9))) (let ((.def_22 (or .def_21 .def_20))) (let ((.def_23 (or .def_5 A19))) (let ((.def_24 (and .def_23 .def_22))) (let ((.def_25 (or .def_24 .def_19))) (let ((.def_26 (not .def_25))) (let ((.def_27 (or .def_26 .def_13))) (let ((.def_28 (not A23))) (let ((.def_29 (or .def_28 A10))) (let ((.def_30 (not A13))) (let ((.def_31 (or A20 .def_30))) (let ((.def_32 (and .def_31 .def_29))) (let ((.def_33 (not .def_32))) (let ((.def_34 (and .def_2 .def_2))) (let ((.def_35 (and A13 A22))) (let ((.def_36 (not .def_35))) (let ((.def_37 (or .def_36 .def_34))) (let ((.def_38 (not .def_37))) (let ((.def_39 (or .def_38 .def_33))) (let ((.def_40 (not A22))) (let ((.def_41 (= .def_40 .def_15))) (let ((.def_42 (not .def_41))) (let ((.def_43 (and A14 A8))) (let ((.def_44 (or .def_43 .def_42))) (let ((.def_45 (not .def_44))) (let ((.def_46 (not A16))) (let ((.def_47 (or .def_46 A11))) (let ((.def_48 (or A6 .def_30))) (let ((.def_49 (not .def_48))) (let ((.def_50 (= .def_49 .def_47))) (let ((.def_51 (not .def_50))) (let ((.def_52 (or .def_51 .def_45))) (let ((.def_53 (or .def_52 .def_39))) (let ((.def_54 (not .def_53))) (let ((.def_55 (and .def_54 .def_27))) (let ((.def_56 (not .def_55))) (let ((.def_57 (or .def_28 A17))) (let ((.def_58 (not A5))) (let ((.def_59 (not A24))) (let ((.def_60 (and .def_59 .def_58))) (let ((.def_61 (not .def_60))) (let ((.def_62 (or .def_61 .def_57))) (let ((.def_63 (not .def_62))) (let ((.def_64 (not A19))) (let ((.def_65 (not A21))) (let ((.def_66 (= .def_65 .def_64))) (let ((.def_67 (not .def_66))) (let ((.def_68 (and A22 A6))) (let ((.def_69 (not .def_68))) (let ((.def_70 (= .def_69 .def_67))) (let ((.def_71 (or .def_70 .def_63))) (let ((.def_72 (= A22 .def_17))) (let ((.def_73 (or A9 .def_65))) (let ((.def_74 (or .def_73 .def_72))) (let ((.def_75 (not A20))) (let ((.def_76 (and .def_14 .def_75))) (let ((.def_77 (not .def_76))) (let ((.def_78 (and A20 .def_2))) (let ((.def_79 (not .def_78))) (let ((.def_80 (and .def_79 .def_77))) (let ((.def_81 (and .def_80 .def_74))) (let ((.def_82 (= .def_81 .def_71))) (let ((.def_83 (and .def_28 .def_0))) (let ((.def_84 (and .def_65 A11))) (let ((.def_85 (and .def_84 .def_83))) (let ((.def_86 (or .def_21 A14))) (let ((.def_87 (or A19 A7))) (let ((.def_88 (and .def_87 .def_86))) (let ((.def_89 (not .def_88))) (let ((.def_90 (and .def_89 .def_85))) (let ((.def_91 (not A15))) (let ((.def_92 (not A12))) (let ((.def_93 (and .def_92 .def_91))) (let ((.def_94 (and .def_40 A4))) (let ((.def_95 (or .def_94 .def_93))) (let ((.def_96 (not A0))) (let ((.def_97 (or .def_96 .def_75))) (let ((.def_98 (and A5 .def_15))) (let ((.def_99 (and .def_98 .def_97))) (let ((.def_100 (and .def_99 .def_95))) (let ((.def_101 (and .def_100 .def_90))) (let ((.def_102 (not .def_101))) (let ((.def_103 (and .def_102 .def_82))) (let ((.def_104 (and .def_103 .def_56))) .def_104))))))))))))))))))))))))))))))))))))))))))))))))))))))))))))))))))))))))))))))))))))))))))))))))))))))))))
(check-sat)
